c 3 - XORSAT
p cnf 50 200
17 19 42 0
-17 -19 42 0
-17 19 -42 0
17 -19 -42 0
26 30 38 0
-26 -30 38 0
-26 30 -38 0
26 -30 -38 0
2 28 35 0
-2 -28 35 0
-2 28 -35 0
2 -28 -35 0
14 31 45 0
-14 -31 45 0
-14 31 -45 0
14 -31 -45 0
-23 -37 -40 0
-23 37 40 0
23 -37 40 0
23 37 -40 0
2 16 39 0
-2 -16 39 0
-2 16 -39 0
2 -16 -39 0
36 47 50 0
-36 -47 50 0
-36 47 -50 0
36 -47 -50 0
11 18 44 0
-11 -18 44 0
-11 18 -44 0
11 -18 -44 0
-13 -14 -40 0
-13 14 40 0
13 -14 40 0
13 14 -40 0
-4 -17 -27 0
-4 17 27 0
4 -17 27 0
4 17 -27 0
1 6 43 0
-1 -6 43 0
-1 6 -43 0
1 -6 -43 0
-1 -10 -24 0
-1 10 24 0
1 -10 24 0
1 10 -24 0
35 39 40 0
-35 -39 40 0
-35 39 -40 0
35 -39 -40 0
28 45 49 0
-28 -45 49 0
-28 45 -49 0
28 -45 -49 0
-8 -32 -34 0
-8 32 34 0
8 -32 34 0
8 32 -34 0
20 24 29 0
-20 -24 29 0
-20 24 -29 0
20 -24 -29 0
4 37 41 0
-4 -37 41 0
-4 37 -41 0
4 -37 -41 0
-2 -13 -32 0
-2 13 32 0
2 -13 32 0
2 13 -32 0
9 10 16 0
-9 -10 16 0
-9 10 -16 0
9 -10 -16 0
11 25 36 0
-11 -25 36 0
-11 25 -36 0
11 -25 -36 0
19 25 29 0
-19 -25 29 0
-19 25 -29 0
19 -25 -29 0
-7 -21 -26 0
-7 21 26 0
7 -21 26 0
7 21 -26 0
-42 -43 -44 0
-42 43 44 0
42 -43 44 0
42 43 -44 0
-25 -27 -33 0
-25 27 33 0
25 -27 33 0
25 27 -33 0
-33 -48 -43 0
-33 48 43 0
33 -48 43 0
33 48 -43 0
8 22 26 0
-8 -22 26 0
-8 22 -26 0
8 -22 -26 0
7 46 47 0
-7 -46 47 0
-7 46 -47 0
7 -46 -47 0
31 37 38 0
-31 -37 38 0
-31 37 -38 0
31 -37 -38 0
-3 -27 -29 0
-3 27 29 0
3 -27 29 0
3 27 -29 0
-31 -41 -48 0
-31 41 48 0
31 -41 48 0
31 41 -48 0
-3 -8 -13 0
-3 8 13 0
3 -8 13 0
3 8 -13 0
-21 -33 -39 0
-21 33 39 0
21 -33 39 0
21 33 -39 0
15 34 41 0
-15 -34 41 0
-15 34 -41 0
15 -34 -41 0
4 12 16 0
-4 -12 16 0
-4 12 -16 0
4 -12 -16 0
-5 -9 -24 0
-5 9 24 0
5 -9 24 0
5 9 -24 0
-15 -17 -18 0
-15 17 18 0
15 -17 18 0
15 17 -18 0
42 45 49 0
-42 -45 49 0
-42 45 -49 0
42 -45 -49 0
-14 -46 -48 0
-14 46 48 0
14 -46 48 0
14 46 -48 0
5 35 47 0
-5 -35 47 0
-5 35 -47 0
5 -35 -47 0
9 20 30 0
-9 -20 30 0
-9 20 -30 0
9 -20 -30 0
-20 -23 -44 0
-20 23 44 0
20 -23 44 0
20 23 -44 0
-5 -32 -50 0
-5 32 50 0
5 -32 50 0
5 32 -50 0
-21 -28 -30 0
-21 28 30 0
21 -28 30 0
21 28 -30 0
-22 -38 -46 0
-22 38 46 0
22 -38 46 0
22 38 -46 0
11 15 19 0
-11 -15 19 0
-11 15 -19 0
11 -15 -19 0
18 34 49 0
-18 -34 49 0
-18 34 -49 0
18 -34 -49 0
6 12 36 0
-6 -12 36 0
-6 12 -36 0
6 -12 -36 0
7 10 12 0
-7 -10 12 0
-7 10 -12 0
7 -10 -12 0
-3 -23 -50 0
-3 23 50 0
3 -23 50 0
3 23 -50 0
-1 -6 -22 0
-1 6 22 0
1 -6 22 0
1 6 -22 0
